c A SAT instance generated from a 2-CNF formula that had 29 clauses and 8 variables
p cnf 8 29
-2 -8 0
-7 2 0
-8 7 0
1 3 0
-5 -3 0
-6 -5 0
-4 5 0
7 5 0
-1 7 0
-4 -2 0
2 8 0
-7 -1 0
-6 8 0
-1 8 0
1 6 0
-8 -7 0
3 -7 0
-8 1 0
1 -2 0
6 3 0
4 8 0
-3 7 0
8 -6 0
-2 -5 0
8 -7 0
7 2 0
-8 -7 0
-8 -3 0
6 5 0
